230
400
320	1
319	2
318	1
317	4
316	3
315	1
312	1
311	1
310	3
309	3
308	1
307	2
304	2
303	2
302	2
301	1
300	2
299	3
298	5
296	2
295	2
294	2
293	1
291	1
290	2
289	2
288	2
287	1
286	1
285	1
284	2
283	2
282	1
281	3
280	3
279	1
277	1
276	3
275	3
273	2
271	4
270	1
269	3
267	4
266	3
265	2
264	3
263	2
262	1
261	3
260	4
259	1
258	3
257	2
255	1
254	1
253	3
252	3
251	2
250	1
248	2
244	1
243	2
242	4
241	2
239	2
236	1
235	5
234	3
233	2
232	3
231	3
230	3
229	2
228	1
227	3
226	3
225	1
224	3
223	2
222	2
221	2
220	1
219	2
218	2
217	1
216	1
215	1
214	1
213	1
212	1
210	2
209	2
208	6
205	5
204	1
203	3
202	2
201	3
200	2
199	1
197	1
196	2
195	2
193	2
191	3
189	4
187	3
186	1
185	2
184	2
183	2
182	3
181	7
180	2
179	2
178	4
177	1
175	1
174	5
173	2
172	4
170	1
169	3
168	1
167	3
166	2
165	1
164	2
163	4
162	8
161	1
160	4
159	1
158	1
157	1
156	2
154	2
152	2
151	1
150	4
148	1
147	4
146	3
144	2
142	4
141	1
140	3
138	1
137	2
136	2
134	2
133	1
132	3
131	1
130	3
129	1
128	1
127	1
126	2
125	3
124	2
122	1
121	3
119	4
118	1
116	2
114	3
113	2
112	3
111	5
109	5
108	2
107	2
106	2
105	1
103	1
102	1
101	1
100	2
99	3
98	1
97	2
94	1
93	3
92	2
91	6
90	1
89	1
88	1
87	1
86	2
85	1
84	1
83	2
82	2
80	4
79	1
78	1
77	2
76	2
75	1
73	2
72	1
70	2
69	1
68	3
67	2
66	3
65	1
64	1
63	2
62	1
60	3
59	3
58	4
57	2
55	1
54	2
53	5
52	1
51	2
50	1
48	4
47	1
46	5
45	2
44	1
43	3
42	2
